
Gurobi 9.1.2 (linux64) logging started Wed Aug  9 12:28:10 2023

Changed value of parameter LogFile to max-ls_r=('1', '4').log
   Prev:   Default: 
Changed value of parameter MIPFocus to 1
   Prev: 0  Min: 0  Max: 3  Default: 0
Changed value of parameter Threads to 32
   Prev: 0  Min: 0  Max: 1024  Default: 0
Changed value of parameter TimeLimit to 3600.0
   Prev: inf  Min: 0.0  Max: inf  Default: inf
Warning: variable name "X[('6', '6'),('7', '6')]" has a space
Warning: constraint name "flow-constr-t0-v('6', '3')" has a space
Warning: to let Gurobi read it back, use rlp format
Gurobi Optimizer version 9.1.2 build v9.1.2rc0 (linux64)
Thread count: 16 physical cores, 32 logical processors, using up to 32 threads
Optimize a model with 2947 rows, 2688 columns and 10296 nonzeros
Model fingerprint: 0xcabe793f
Variable types: 256 continuous, 2432 integer (2432 binary)
Coefficient statistics:
  Matrix range     [1e+00, 7e+04]
  Objective range  [2e-01, 2e-01]
  Bounds range     [1e+00, 3e+04]
  RHS range        [1e+00, 7e+04]
Presolve removed 295 rows and 296 columns
Presolve time: 0.05s
Presolved: 2652 rows, 2392 columns, 18106 nonzeros
Variable types: 256 continuous, 2136 integer (2136 binary)
Found heuristic solution: objective 9729.2499990
Found heuristic solution: objective 8372.7499995

Root relaxation: objective 6.400000e+01, 152 iterations, 0.00 seconds

    Nodes    |    Current Node    |     Objective Bounds      |     Work
 Expl Unexpl |  Obj  Depth IntInf | Incumbent    BestBd   Gap | It/Node Time

     0     0   64.00000    0   40 8372.75000   64.00000  99.2%     -    0s
H    0     0                     592.6249999   64.00000  89.2%     -    0s
H    0     0                     561.2499999   64.00000  88.6%     -    0s
H    0     0                     263.0000000   64.00000  75.7%     -    0s
     0     0   64.00000    0   64  263.00000   64.00000  75.7%     -    0s
H    0     0                      91.7500000   64.00000  30.2%     -    0s
H    0     0                      90.7500000   64.00000  29.5%     -    0s
     0     0   64.00000    0   71   90.75000   64.00000  29.5%     -    0s
     0     0   64.00000    0   20   90.75000   64.00000  29.5%     -    0s
H    0     0                      87.5000000   64.00000  26.9%     -    0s
     0     0   64.00000    0   16   87.50000   64.00000  26.9%     -    0s
     0     0   64.00000    0   22   87.50000   64.00000  26.9%     -    0s
     0     0   64.00000    0   12   87.50000   64.00000  26.9%     -    0s
H    0     0                      83.8125000   64.00000  23.6%     -    0s
H    0     0                      83.2500000   64.00000  23.1%     -    0s
     0     0   64.00000    0   12   83.25000   64.00000  23.1%     -    1s
     0     0   64.00000    0   10   83.25000   64.00000  23.1%     -    1s
H    0     0                      69.7500000   64.00000  8.24%     -    1s
H    0     0                      69.6250000   64.00000  8.08%     -    1s
     0     2   64.00000    0   10   69.62500   64.00000  8.08%     -    1s
H    2     4                      69.3750000   64.00000  7.75%  94.5    1s
H   32    64                      68.5000000   64.00000  6.57%  12.7    2s
H   36    64                      68.2500000   64.00000  6.23%  11.9    2s
H   39    64                      67.2500000   64.00000  4.83%  11.1    2s
H  159   192                      67.0000000   64.00000  4.48%   5.8    4s
H  160   192                      66.5000000   64.00000  3.76%   6.0    4s
H  167   192                      66.3333333   64.00000  3.52%   5.8    4s
H  174   192                      66.0000000   64.00000  3.03%   5.7    4s
H  223   256                      65.6666667   64.00000  2.54%   5.0    6s
H  243   256                      65.0000000   64.00000  1.54%   4.8    6s
H  264   288                      64.1666667   64.00000  0.26%   4.7    8s
H  269   288                      64.0000000   64.00000  0.00%   4.7    8s

Cutting planes:
  Cover: 10
  Implied bound: 7
  Clique: 1
  MIR: 4
  Flow cover: 11
  RLT: 9
  Relax-and-lift: 6

Explored 287 nodes (7639 simplex iterations) in 8.45 seconds
Thread count was 32 (of 32 available processors)

Solution count 10: 64 64.1667 65 ... 68.25

Optimal solution found (tolerance 1.00e-04)
Best objective 6.399999999996e+01, best bound 6.399999999996e+01, gap 0.0000%
